NAME : rnd23_50.tsp
TYPE : TSP
DIMENSION : 50
EDGE_WEIGHT_TYPE : EUC_2D
NODE_COORD_SECTION
1 262 476
2 674 16
3 304 369
4 880 789
5 895 485
6 311 651
7 832 366
8 808 433
9 972 123
10 40 608
11 860 64
12 110 117
13 121 698
14 82 230
15 409 578
16 83 68
17 402 167
18 590 630
19 512 438
20 527 304
21 602 577
22 167 729
23 959 363
24 684 246
25 631 401
26 942 521
27 905 32
28 136 449
29 321 638
30 725 672
31 221 690
32 461 242
33 550 689
34 406 325
35 4 110
36 548 331
37 659 162
38 921 336
39 415 157
40 23 374
41 695 490
42 987 138
43 471 624
44 531 75
45 112 926
46 302 937
47 145 690
48 202 955
49 322 429
50 726 64
